
Log started (V11.0.0) Wed May 21 00:03:02 2008

Tried aggregator 1 time.
Reduced MIP has 250 rows, 10001 columns, and 20050 nonzeros.
Presolve time =    0.08 sec.
Clique table members: 200.
MIP emphasis: balance optimality and feasibility.
MIP search method: dynamic search.
Parallel mode: none, using 1 thread.
Root relaxation solution time =    0.78 sec.

        Nodes                                         Cuts/
   Node  Left     Objective  IInf  Best Integer     Best Node    ItCnt     Gap

*     0+    0                       209478.0000     4006.6191      639   98.09%
*     0+    0                         4015.0000     4006.6191      639    0.21%
      0     0     4006.6678    98     4015.0000      Fract: 3      665    0.21%
      0     0     4006.6777   100     4015.0000     Covers: 1      669    0.21%
      0     0     4006.6872   102     4015.0000     Covers: 1      672    0.21%
*     0+    0                         4014.0000     4006.6872      672    0.18%
      0     2     4007.0000    94     4014.0000     4006.6872      672    0.18%
    100    52        cutoff           4014.0000     4007.0000    19636    0.17%
    200    74        cutoff           4014.0000     4007.0000    48358    0.17%
    300   136     4007.0000    91     4014.0000     4007.0000    57892    0.17%
    400   208     4007.0407    95     4014.0000     4007.0000    71018    0.17%
    500   278     4007.1217    96     4014.0000     4007.0000    86356    0.17%
    600   283     4012.0000    76     4014.0000     4010.0000    95162    0.10%
    700   275     4013.0000    78     4014.0000     4010.0000   115100    0.10%
    800   279     4011.0000    79     4014.0000     4010.0000   127510    0.10%
    900   262     4011.0000    90     4014.0000     4010.0000   133550    0.10%
   1000   319    infeasible           4014.0000     4010.0000   141793    0.10%
Elapsed time =  94.52 sec. (tree size =  2.00 MB, solutions = 3)
   1100   383     4011.0000    69     4014.0000     4010.0000   162754    0.10%
   1200   465     4011.0000    86     4014.0000     4010.0000   169160    0.10%
   1300   536     4012.0000    80     4014.0000     4010.0000   178501    0.10%
   1400   586        cutoff           4014.0000     4010.0000   207203    0.10%
   1500   632     4011.0000    92     4014.0000     4010.0000   217811    0.10%
   1600   710     4011.0000    95     4014.0000     4010.0000   222484    0.10%
   1700   779     4012.0000    96     4014.0000     4010.0000   229952    0.10%
   1800   854     4011.0000   101     4014.0000     4011.0000   246867    0.07%
   1900   932     4013.0000    94     4014.0000     4011.0000   255728    0.07%
   2000  1018     4011.0000   100     4014.0000     4011.0000   259823    0.07%
Elapsed time = 179.25 sec. (tree size =  6.91 MB, solutions = 3)
   2100  1091     4011.0000    85     4014.0000     4011.0000   271212    0.07%
   2200  1177     4013.0000    90     4014.0000     4011.0000   275100    0.07%
   2300  1250     4011.0000    77     4014.0000     4011.0000   282278    0.07%
   2400  1334     4011.0000    81     4014.0000     4011.0000   289204    0.07%
   2500  1425     4011.0000    74     4014.0000     4011.0000   293899    0.07%
   2600  1510     4011.0000    94     4014.0000     4011.0000   304372    0.07%
   2700  1596     4011.0000    94     4014.0000     4011.0000   311297    0.07%
   2800  1691     4012.0000    81     4014.0000     4011.0000   314606    0.07%
   2900  1775     4011.0000   100     4014.0000     4011.0000   327784    0.07%
   3000  1870     4012.0000    90     4014.0000     4011.0000   331021    0.07%
Elapsed time = 249.38 sec. (tree size = 13.29 MB, solutions = 3)
   3100  1956     4011.0000    97     4014.0000     4011.0000   338358    0.07%
   3200  2039     4011.0000    96     4014.0000     4011.0000   345087    0.07%
   3300  2125     4011.0000    86     4014.0000     4011.0000   355996    0.07%
   3400  2191        cutoff           4014.0000     4011.0000   379468    0.07%
   3500  2252     4011.0000    87     4014.0000     4011.0000   410435    0.07%
   3600  2350     4012.0000    91     4014.0000     4011.0000   415456    0.07%
   3700  2432     4011.0000    83     4014.0000     4011.0000   427956    0.07%
   3800  2488     4011.0000   142     4014.0000     4011.0000   457588    0.07%
   3900  2588     4011.0000    99     4014.0000     4011.0000   460623    0.07%
   4000  2667     4011.0000   101     4014.0000     4011.0000   473751    0.07%
Elapsed time = 374.27 sec. (tree size = 20.96 MB, solutions = 3)
   4100  2762     4013.0000   131     4014.0000     4011.0000   480147    0.07%
   4200  2856     4012.0000    90     4014.0000     4011.0000   485246    0.07%
   4300  2949     4011.0000    89     4014.0000     4011.0000   497554    0.07%
   4400  3043     4012.0000   122     4014.0000     4011.0000   502159    0.07%
   4500  3132     4011.0000   104     4014.0000     4011.0000   510120    0.07%
   4600  3219     4011.0000    85     4014.0000     4011.0000   523368    0.07%
   4700  3310     4013.0000    90     4014.0000     4011.0000   538007    0.07%
   4800  3402     4011.0000   113     4014.0000     4011.0000   548894    0.07%
   4900  3485     4011.0000   136     4014.0000     4011.0000   565770    0.07%
   5000  3572     4013.0000   104     4014.0000     4011.0000   575156    0.07%
Elapsed time = 481.42 sec. (tree size = 31.30 MB, solutions = 3)
   5100  3658     4011.0000   123     4014.0000     4011.0000   592834    0.07%
   5200  3747     4012.0000    91     4014.0000     4011.0000   607226    0.07%
   5300  3828     4013.0000   110     4014.0000     4011.0000   619453    0.07%
   5400  3910     4011.0000   103     4014.0000     4011.0000   629594    0.07%
   5500  3999     4013.0000    92     4014.0000     4011.0000   642624    0.07%
   5600  4099     4013.0000   101     4014.0000     4011.0000   646428    0.07%
   5700  4191     4012.0037   154     4014.0000     4011.0000   664407    0.07%
   5800  4282     4011.0000   161     4014.0000     4011.0000   678495    0.07%
   5900  4381     4012.0000    76     4014.0000     4011.0000   682381    0.07%
*  5946+ 3558                         4013.0000     4011.0000   694455    0.05%
   6000  3605     4011.0000    95     4013.0000     4011.0000   701423    0.05%
Elapsed time = 608.50 sec. (tree size = 33.55 MB, solutions = 4)
   6100  3684    infeasible           4013.0000     4011.0000   718421    0.05%
   6200  3756     4011.0000    68     4013.0000     4011.0000   749194    0.05%
   6300  3835     4012.0000   127     4013.0000     4011.0000   770204    0.05%
   6400  3920     4011.0000    85     4013.0000     4011.0000   787748    0.05%
   6500  3998    infeasible           4013.0000     4011.0000   810572    0.05%
   6600  4082     4012.0000   124     4013.0000     4011.0000   829723    0.05%
   6700  4165     4011.0000   100     4013.0000     4011.0000   844835    0.05%
   6800  4235     4011.0000    95     4013.0000     4011.0000   868115    0.05%
   6900  4324     4011.0000   110     4013.0000     4011.0000   877708    0.05%
   7000  4386     4012.0000    82     4013.0000     4011.0000   939580    0.05%
Elapsed time = 788.02 sec. (tree size = 44.36 MB, solutions = 4)
   7100  4440     4011.0000    89     4013.0000     4011.0000   985630    0.05%
   7200  4515     4011.0000   117     4013.0000     4011.0000  1003702    0.05%
   7300  4605     4012.0000   116     4013.0000     4011.0000  1014505    0.05%
   7400  4692    infeasible           4013.0000     4011.0000  1028200    0.05%
   7500  4779     4011.0000    77     4013.0000     4011.0000  1040357    0.05%
   7600  4857     4011.0000    55     4013.0000     4011.0000  1061474    0.05%
   7700  4934     4011.0000    83     4013.0000     4011.0000  1086714    0.05%
   7800  5007     4011.0000    90     4013.0000     4011.0000  1110354    0.05%
   7900  5071        cutoff           4013.0000     4011.0000  1148589    0.05%
*  7906+ 3861                         4012.0000     4011.0000  1149641    0.02%
   8000  3767    infeasible           4012.0000     4011.0000  1449354    0.02%
Elapsed time = 1146.97 sec. (tree size = 38.73 MB, solutions = 5)
   8100  3859     4011.0000    90     4012.0000     4011.0000  1467962    0.02%
   8200  3933     4011.0000    91     4012.0000     4011.0000  1513197    0.02%
   8300  4018     4011.0000    90     4012.0000     4011.0000  1540894    0.02%
   8400  4098     4011.0000   103     4012.0000     4011.0000  1564948    0.02%
   8500  4174     4011.0000    87     4012.0000     4011.0000  1598862    0.02%
   8600  4252     4011.0000    99     4012.0000     4011.0000  1630924    0.02%
   8700  4331    infeasible           4012.0000     4011.0000  1659633    0.02%
   8800  4393     4011.0000   129     4012.0000     4011.0000  1720336    0.02%
   8900  4486     4011.0000   107     4012.0000     4011.0000  1732495    0.02%
   9000  4550     4011.0000   111     4012.0000     4011.0000  1803241    0.02%
Elapsed time = 1494.94 sec. (tree size = 50.11 MB, solutions = 5)
   9100  4586     4011.0000   102     4012.0000     4011.0000  1916302    0.02%
   9200  4674     4011.0000   107     4012.0000     4011.0000  1939807    0.02%
   9300  4754     4011.0000    95     4012.0000     4011.0000  1962481    0.02%
   9400  4819     4011.0000   122     4012.0000     4011.0000  2023031    0.02%
   9500  4903     4011.0000   109     4012.0000     4011.0000  2057812    0.02%
   9600  5000     4011.0000   101     4012.0000     4011.0000  2064239    0.02%
   9700  5070    infeasible           4012.0000     4011.0000  2095360    0.02%
   9800  5156     4011.0000   116     4012.0000     4011.0000  2118173    0.02%
   9900  5235     4011.0000    96     4012.0000     4011.0000  2150911    0.02%
  10000  5285     4011.0000   139     4012.0000     4011.0000  2222845    0.02%
Elapsed time = 1891.50 sec. (tree size = 62.42 MB, solutions = 5)
  10100  5325     4011.0000   157     4012.0000     4011.0000  2317133    0.02%
  10200  5401    infeasible           4012.0000     4011.0000  2360724    0.02%
  10300  5481    infeasible           4012.0000     4011.0000  2401104    0.02%
  10400  5555     4011.0000   117     4012.0000     4011.0000  2452340    0.02%
  10500  5649     4011.0000   148     4012.0000     4011.0000  2478819    0.02%
  10600  5735     4011.0000   105     4012.0000     4011.0000  2499277    0.02%
  10700  5821     4011.0000    76     4012.0000     4011.0000  2536072    0.02%
  10800  5909     4011.0000   102     4012.0000     4011.0000  2593313    0.02%
  10900  5988     4011.0000    68     4012.0000     4011.0000  2638351    0.02%
  11000  6041    infeasible           4012.0000     4011.0000  2722848    0.02%
Elapsed time = 2407.80 sec. (tree size = 76.11 MB, solutions = 5)
  11100  6133     4011.0000   103     4012.0000     4011.0000  2739422    0.02%
  11200  6223     4011.0000   102     4012.0000     4011.0000  2763482    0.02%
  11300  6299     4011.0000    89     4012.0000     4011.0000  2809530    0.02%
  11400  6391     4011.0000    55     4012.0000     4011.0000  2843292    0.02%
  11500  6483     4011.0000    82     4012.0000     4011.0000  2861602    0.02%
  11600  6543     4011.0000   127     4012.0000     4011.0000  2934508    0.02%
  11700  6611    infeasible           4012.0000     4011.0000  2996364    0.02%
  11800  6687     4011.0000    94     4012.0000     4011.0000  3066914    0.02%
  11900  6774     4011.0000   100     4012.0000     4011.0000  3097369    0.02%
  12000  6863     4011.0000    89     4012.0000     4011.0000  3118598    0.02%
Elapsed time = 2867.75 sec. (tree size = 91.79 MB, solutions = 5)
  12100  6935     4011.0000    59     4012.0000     4011.0000  3168669    0.02%
  12200  7031     4011.0000   113     4012.0000     4011.0000  3176803    0.02%
  12300  7121     4011.0000   115     4012.0000     4011.0000  3188209    0.02%
  12400  7211     4011.0000   115     4012.0000     4011.0000  3202746    0.02%
  12500  7297     4011.0000   107     4012.0000     4011.0000  3226561    0.02%
  12600  7391     4011.0000   127     4012.0000     4011.0000  3248900    0.02%
  12700  7467     4011.0000    97     4012.0000     4011.0000  3275296    0.02%
  12800  7561     4011.0000   115     4012.0000     4011.0000  3293655    0.02%
  12900  7647     4011.0000   123     4012.0000     4011.0000  3335379    0.02%
  13000  7727     4011.0000   127     4012.0000     4011.0000  3355035    0.02%
Elapsed time = 3148.27 sec. (tree size = 109.19 MB, solutions = 5)
  13100  7813     4011.0000   120     4012.0000     4011.0000  3387196    0.02%
  13200  7893     4011.0000   145     4012.0000     4011.0000  3439799    0.02%
  13300  7988    infeasible           4012.0000     4011.0000  3455222    0.02%
  13400  8072     4011.0000   110     4012.0000     4011.0000  3477327    0.02%
  13500  8157     4011.0000    82     4012.0000     4011.0000  3495658    0.02%
  13600  8241     4011.0000   114     4012.0000     4011.0000  3520584    0.02%
  13700  8323     4011.0000   125     4012.0000     4011.0000  3548467    0.02%
  13800  8403     4011.0000    95     4012.0000     4011.0000  3592751    0.02%
  13900  8495     4011.0000   111     4012.0000     4011.0000  3617455    0.02%
  14000  8561     4011.0000   105     4012.0000     4011.0000  3664077    0.02%
Elapsed time = 3503.02 sec. (tree size = 126.67 MB, solutions = 5)
Began writing nodes to disk (directory ./cpxa01652 created)
  14100  8649     4011.0000   131     4012.0000     4011.0000  3690589    0.02%
  14200  8733     4011.0000   125     4012.0000     4011.0000  3712730    0.02%
  14300  8819     4011.0000   107     4012.0000     4011.0000  3735296    0.02%
  14400  8909     4011.0000   123     4012.0000     4011.0000  3770213    0.02%
  14500  8997     4011.0000   120     4012.0000     4011.0000  3810252    0.02%
  14600  9071     4011.0000   151     4012.0000     4011.0000  3856233    0.02%
  14700  9149     4011.0000   137     4012.0000     4011.0000  3916318    0.02%
  14800  9235     4011.0000   122     4012.0000     4011.0000  3945016    0.02%
  14900  9292     4011.0000    60     4012.0000     4011.0000  4001652    0.02%
  15000  9371     4011.0000   104     4012.0000     4011.0000  4041404    0.02%
Elapsed time = 3937.48 sec. (tree size = 143.68 MB, solutions = 5)
Nodefile size = 15.87 MB (13.22 MB after compression)
  15100  9453     4011.0000    74     4012.0000     4011.0000  4082517    0.02%
  15200  9483     4011.0000    71     4012.0000     4011.0000  4200281    0.02%
  15300  9520    infeasible           4012.0000     4011.0000  4312789    0.02%
  15400  9595     4011.0000   145     4012.0000     4011.0000  4345342    0.02%
  15500  9670     4011.0000   116     4012.0000     4011.0000  4401622    0.02%
  15600  9750     4011.0000    65     4012.0000     4011.0000  4451600    0.02%
  15700  9832     4011.0000   132     4012.0000     4011.0000  4511323    0.02%
  15800  9922     4011.0000   155     4012.0000     4011.0000  4534634    0.02%
  15900 10011     4011.0000   108     4012.0000     4011.0000  4551720    0.02%
  16000 10095     4011.0000    94     4012.0000     4011.0000  4575889    0.02%
Elapsed time = 4549.36 sec. (tree size = 158.92 MB, solutions = 5)
Nodefile size = 31.73 MB (26.42 MB after compression)
  16100 10187     4011.0000    94     4012.0000     4011.0000  4607198    0.02%
  16200 10279     4011.0000    94     4012.0000     4011.0000  4631255    0.02%
  16300 10356     4011.0000   140     4012.0000     4011.0000  4684530    0.02%
  16400 10440     4011.0000    90     4012.0000     4011.0000  4713451    0.02%
  16500 10522     4011.0000   145     4012.0000     4011.0000  4751289    0.02%
  16600 10599     4011.0000    83     4012.0000     4011.0000  4797890    0.02%
  16700 10683     4011.0000   110     4012.0000     4011.0000  4828959    0.02%
  16800 10757     4011.0000   163     4012.0000     4011.0000  4893656    0.02%
  16900 10835     4011.0000   148     4012.0000     4011.0000  4931832    0.02%
  17000 10911     4011.0000   132     4012.0000     4011.0000  4978769    0.02%
Elapsed time = 5030.02 sec. (tree size = 176.06 MB, solutions = 5)
Nodefile size = 48.56 MB (40.54 MB after compression)
  17100 10997     4011.0000   114     4012.0000     4011.0000  5005390    0.02%
  17200 11079     4011.0000   101     4012.0000     4011.0000  5037580    0.02%
  17300 11163     4011.0000    64     4012.0000     4011.0000  5087250    0.02%
  17400 11221     4011.0000    64     4012.0000     4011.0000  5164739    0.02%
  17500 11275    infeasible           4012.0000     4011.0000  5250792    0.02%
  17600 11349     4011.0000   108     4012.0000     4011.0000  5304204    0.02%
  17700 11385    infeasible           4012.0000     4011.0000  5399355    0.02%
  17800 11399     4011.0000    63     4012.0000     4011.0000  5499273    0.02%
  17900 11435     4011.0000   105     4012.0000     4011.0000  5580883    0.02%
  18000 11517     4011.0000    90     4012.0000     4011.0000  5615942    0.02%
Elapsed time = 5712.78 sec. (tree size = 188.82 MB, solutions = 5)
Nodefile size = 61.44 MB (51.24 MB after compression)
  18100 11591     4011.0000   122     4012.0000     4011.0000  5649890    0.02%
  18200 11665    infeasible           4012.0000     4011.0000  5696181    0.02%
  18300 11744     4011.0000   101     4012.0000     4011.0000  5736515    0.02%
  18400 11832     4011.0000   107     4012.0000     4011.0000  5772154    0.02%
  18500 11909     4011.0000   145     4012.0000     4011.0000  5827364    0.02%
  18600 11995     4011.0000   137     4012.0000     4011.0000  5876194    0.02%
  18700 12085     4011.0000   102     4012.0000     4011.0000  5899625    0.02%
  18800 12166     4011.0000    88     4012.0000     4011.0000  5937465    0.02%
  18900 12248     4011.0000    67     4012.0000     4011.0000  5973766    0.02%
  19000 12328     4011.0000   124     4012.0000     4011.0000  6030560    0.02%
Elapsed time = 6203.77 sec. (tree size = 205.87 MB, solutions = 5)
Nodefile size = 78.26 MB (65.13 MB after compression)
  19100 12405     4011.0000   120     4012.0000     4011.0000  6061915    0.02%
  19200 12481    infeasible           4012.0000     4011.0000  6094260    0.02%
  19300 12571     4011.0000   116     4012.0000     4011.0000  6109639    0.02%
  19400 12647     4011.0000   113     4012.0000     4011.0000  6146241    0.02%
  19500 12735     4011.0000    99     4012.0000     4011.0000  6175851    0.02%
  19600 12819     4011.0000   122     4012.0000     4011.0000  6218434    0.02%
  19700 12911     4011.0000    77     4012.0000     4011.0000  6246467    0.02%
  19800 12996     4011.0000    96     4012.0000     4011.0000  6283853    0.02%
  19900 13076     4011.0000   101     4012.0000     4011.0000  6326389    0.02%
  20000 13162     4011.0000   145     4012.0000     4011.0000  6368175    0.02%
Elapsed time = 6609.42 sec. (tree size = 223.41 MB, solutions = 5)
Nodefile size = 96.12 MB (80.16 MB after compression)
  20100 13236     4011.0000   143     4012.0000     4011.0000  6437167    0.02%
  20200 13318     4011.0000    99     4012.0000     4011.0000  6475258    0.02%
  20300 13390     4011.0000    85     4012.0000     4011.0000  6510529    0.02%
  20400 13472     4011.0000   119     4012.0000     4011.0000  6562053    0.02%
  20500 13550     4011.0000   130     4012.0000     4011.0000  6599664    0.02%
  20600 13636     4011.0000    98     4012.0000     4011.0000  6631174    0.02%
  20700 13726     4011.0000   139     4012.0000     4011.0000  6654696    0.02%
  20800 13800     4011.0000   124     4012.0000     4011.0000  6698219    0.02%
  20900 13890     4011.0000   127     4012.0000     4011.0000  6725005    0.02%
  21000 13942    infeasible           4012.0000     4011.0000  6844716    0.02%
Elapsed time = 7141.13 sec. (tree size = 239.84 MB, solutions = 5)
Nodefile size = 111.95 MB (93.44 MB after compression)

Cover cuts applied:  1229
Flow cuts applied:  1
Mixed integer rounding cuts applied:  2
Gomory fractional cuts applied:  18

Solution pool: 5 solutions saved.

MIP - Time limit exceeded, integer feasible:  Objective = 4.0120000000e+003
Current MIP best bound = 4.0110000000e+003 (gap = 1, 0.02%)
Solution time = 7200.06 sec.  Iterations = 6902391  Nodes = 21061 (13976)


Incumbent solution
Variable Name           Solution Value
Cmax                       4012.000000
X_1_48                        1.000000
X_2_18                        1.000000
X_3_48                        1.000000
X_4_38                        1.000000
X_5_41                        1.000000
X_6_39                        1.000000
X_7_17                        1.000000
X_8_48                        1.000000
X_9_30                        1.000000
X_10_12                       1.000000
X_11_44                       1.000000
X_12_42                       1.000000
X_13_15                       1.000000
X_14_1                        1.000000
X_15_3                        1.000000
X_16_50                       1.000000
X_17_37                       1.000000
X_18_21                       1.000000
X_19_28                       1.000000
X_20_11                       1.000000
X_21_8                        1.000000
X_22_29                       1.000000
X_23_36                       1.000000
X_24_35                       1.000000
X_25_18                       1.000000
X_26_39                       1.000000
X_27_10                       1.000000
X_28_9                        1.000000
X_29_18                       1.000000
X_30_24                       1.000000
X_31_36                       1.000000
X_32_44                       1.000000
X_33_32                       1.000000
X_34_49                       1.000000
X_35_45                       1.000000
X_36_10                       1.000000
X_37_3                        1.000000
X_38_46                       1.000000
X_39_25                       1.000000
X_40_25                       1.000000
X_41_28                       1.000000
X_42_8                        1.000000
X_43_42                       1.000000
X_44_26                       1.000000
X_45_43                       1.000000
X_46_39                       1.000000
X_47_37                       1.000000
X_48_50                       1.000000
X_49_7                        1.000000
X_50_20                       1.000000
X_51_43                       1.000000
X_52_31                       1.000000
X_53_9                        1.000000
X_54_9                        1.000000
X_55_35                       1.000000
X_56_44                       1.000000
X_57_15                       1.000000
X_58_47                       1.000000
X_59_15                       1.000000
X_60_19                       1.000000
X_61_38                       1.000000
X_62_6                        1.000000
X_63_25                       1.000000
X_64_23                       1.000000
X_65_30                       1.000000
X_66_42                       1.000000
X_67_8                        1.000000
X_68_14                       1.000000
X_69_7                        1.000000
X_70_7                        1.000000
X_71_26                       1.000000
X_72_19                       1.000000
X_73_4                        1.000000
X_74_39                       1.000000
X_75_27                       1.000000
X_76_32                       1.000000
X_77_7                        1.000000
X_78_34                       1.000000
X_79_33                       1.000000
X_80_6                        1.000000
X_81_10                       1.000000
X_82_45                       1.000000
X_83_20                       1.000000
X_84_8                        1.000000
X_85_29                       1.000000
X_86_50                       1.000000
X_87_40                       1.000000
X_88_3                        1.000000
X_89_19                       1.000000
X_90_35                       1.000000
X_91_42                       1.000000
X_92_22                       1.000000
X_93_24                       1.000000
X_94_33                       1.000000
X_95_30                       1.000000
X_96_18                       1.000000
X_97_34                       1.000000
X_98_1                        1.000000
X_99_23                       1.000000
X_100_36                      1.000000
X_101_47                      1.000000
X_102_9                       1.000000
X_103_27                      1.000000
X_104_40                      1.000000
X_105_46                      1.000000
X_106_11                      1.000000
X_107_49                      1.000000
X_108_28                      1.000000
X_109_22                      1.000000
X_110_26                      1.000000
X_111_21                      1.000000
X_112_17                      1.000000
X_113_5                       1.000000
X_114_17                      1.000000
X_115_43                      1.000000
X_116_50                      1.000000
X_117_26                      1.000000
X_118_3                       1.000000
X_119_37                      1.000000
X_120_12                      1.000000
X_121_2                       1.000000
X_122_2                       1.000000
X_123_31                      1.000000
X_124_28                      1.000000
X_125_24                      1.000000
X_126_17                      1.000000
X_127_1                       1.000000
X_128_5                       1.000000
X_129_24                      1.000000
X_130_20                      1.000000
X_131_33                      1.000000
X_132_46                      1.000000
X_133_45                      1.000000
X_134_22                      1.000000
X_135_46                      1.000000
X_136_12                      1.000000
X_137_14                      1.000000
X_138_27                      1.000000
X_139_32                      1.000000
X_140_16                      1.000000
X_141_15                      1.000000
X_142_13                      1.000000
X_143_21                      1.000000
X_144_14                      1.000000
X_145_49                      1.000000
X_146_48                      1.000000
X_147_49                      1.000000
X_148_47                      1.000000
X_149_36                      1.000000
X_150_27                      1.000000
X_151_19                      1.000000
X_152_4                       1.000000
X_153_29                      1.000000
X_154_43                      1.000000
X_155_41                      1.000000
X_156_5                       1.000000
X_157_4                       1.000000
X_158_6                       1.000000
X_159_30                      1.000000
X_160_40                      1.000000
X_161_1                       1.000000
X_162_37                      1.000000
X_163_2                       1.000000
X_164_13                      1.000000
X_165_25                      1.000000
X_166_16                      1.000000
X_167_31                      1.000000
X_168_4                       1.000000
X_169_38                      1.000000
X_170_41                      1.000000
X_171_11                      1.000000
X_172_12                      1.000000
X_173_23                      1.000000
X_174_11                      1.000000
X_175_35                      1.000000
X_176_45                      1.000000
X_177_22                      1.000000
X_178_44                      1.000000
X_179_33                      1.000000
X_180_20                      1.000000
X_181_34                      1.000000
X_182_29                      1.000000
X_183_40                      1.000000
X_184_32                      1.000000
X_185_10                      1.000000
X_186_2                       1.000000
X_187_16                      1.000000
X_188_34                      1.000000
X_189_23                      1.000000
X_190_5                       1.000000
X_191_14                      1.000000
X_192_38                      1.000000
X_193_13                      1.000000
X_194_21                      1.000000
X_195_6                       1.000000
X_196_41                      1.000000
X_197_47                      1.000000
X_198_16                      1.000000
X_199_31                      1.000000
X_200_13                      1.000000
All other variables in the range 1-10001 are 0.
